0 109767
1 109774
2 109818
3 109852
4 110067
5 110154
6 110181
7 110205
8 110287
9 110312
10 110312
20 110312
30 110312
40 110312
50 110312
60 110312
70 110312
80 110312
90 110312
100 110312
110 110312
120 110312
130 110312
140 110312
150 110312
160 110312
170 110312
180 110312
190 110312
200 110312
210 110312
220 110312
230 110312
240 110312
250 110312
260 110312
270 110312
280 110312
290 110312
300 110312
